
******************************************************************************
This program contains Ipopt, a library for large-scale nonlinear optimization.
 Ipopt is released as open source code under the Eclipse Public License (EPL).
         For more information visit http://projects.coin-or.org/Ipopt

This version of Ipopt was compiled from source code available at
    https://github.com/IDAES/Ipopt as part of the Institute for the Design of
    Advanced Energy Systems Process Systems Engineering Framework (IDAES PSE
    Framework) Copyright (c) 2018-2019. See https://github.com/IDAES/idaes-pse.

This version of Ipopt was compiled using HSL, a collection of Fortran codes
    for large-scale scientific computation.  All technical papers, sales and
    publicity material resulting from use of the HSL codes within IPOPT must
    contain the following acknowledgement:
        HSL, a collection of Fortran codes for large-scale scientific
        computation. See http://www.hsl.rl.ac.uk.
******************************************************************************

This is Ipopt version 3.13.2, running with linear solver ma27.

Number of nonzeros in equality constraint Jacobian...:      928
Number of nonzeros in inequality constraint Jacobian.:        0
Number of nonzeros in Lagrangian Hessian.............:      806

Total number of variables............................:      403
                     variables with only lower bounds:      124
                variables with lower and upper bounds:      217
                     variables with only upper bounds:        0
Total number of equality constraints.................:      402
Total number of inequality constraints...............:        0
        inequality constraints with only lower bounds:        0
   inequality constraints with lower and upper bounds:        0
        inequality constraints with only upper bounds:        0

iter    objective    inf_pr   inf_du lg(mu)  ||d||  lg(rg) alpha_du alpha_pr  ls
   0  0.0000000e+00 1.17e+00 8.88e-16  -1.0 0.00e+00    -  0.00e+00 0.00e+00   0
   1  9.3048922e-01 8.67e-01 3.32e+04  -1.0 1.97e+05    -  4.58e-01 3.05e-01h  1
   2  9.8113281e-01 8.57e-01 3.29e+04  -1.0 1.61e+05    -  5.33e-01 1.12e-02h  1
   3  2.6899632e+00 6.77e-01 2.80e+04  -1.0 2.02e+05    -  5.47e-01 2.30e-01h  1
   4  1.9318088e+01 1.62e-01 2.43e+03  -1.0 1.64e+05    -  7.41e-01 9.90e-01h  1
   5  2.1932776e+01 1.34e-02 4.87e+02  -1.0 1.64e+04    -  8.77e-01 9.90e-01h  1
   6  2.1981666e+01 2.22e-04 3.25e+01  -1.0 4.13e+02    -  9.90e-01 9.90e-01h  1
   7  2.1982806e+01 2.15e-04 1.81e+07  -1.0 5.65e+02    -  9.90e-01 3.09e-02f  6
   8  2.2016730e+01 2.02e-04 2.29e+07  -1.0 8.48e+03    -  3.61e-01 6.19e-02f  5
   9  2.2163750e+01 1.92e-04 2.33e+05  -1.0 2.30e+03    -  9.90e-01 9.90e-01H  1
iter    objective    inf_pr   inf_du lg(mu)  ||d||  lg(rg) alpha_du alpha_pr  ls
  10  2.2251684e+01 3.20e-05 2.08e+07  -1.0 1.37e+03    -  1.00e+00 9.90e-01H  1
  11  2.2231173e+01 1.24e-05 2.08e+09  -1.0 3.18e+02    -  1.00e+00 9.90e-01h  1
  12  2.2229819e+01 1.62e-07 2.08e+11  -1.0 2.09e+01    -  1.00e+00 9.90e-01h  1
In iteration 12, 31 Slacks too small, adjusting variable bounds
  13  2.2229801e+01 1.63e-09 2.08e+13  -1.0 2.77e-01    -  1.00e+00 9.90e-01h  1
  14  2.2229800e+01 2.24e-12 1.17e-01  -1.0 2.78e-03    -  1.00e+00 1.00e+00h  1
  15  2.2229680e+01 4.56e-10 2.10e+13  -9.0 6.27e+03    -  9.89e-01 2.94e-04f 12
  16  2.2229560e+01 9.12e-10 2.12e+13  -9.0 4.58e+03    -  9.93e-01 4.02e-04f 12
  17  2.2229440e+01 1.37e-09 2.12e+13  -9.0 4.13e+03    -  9.96e-01 4.46e-04f 12
  18  2.2229380e+01 1.48e-09 2.12e+13  -9.0 3.96e+03    -  1.00e+00 2.33e-04f 13
  19  2.2229320e+01 1.60e-09 2.12e+13  -9.0 3.87e+03    -  1.00e+00 2.37e-04f 13
iter    objective    inf_pr   inf_du lg(mu)  ||d||  lg(rg) alpha_du alpha_pr  ls
  20  2.1985229e+01 3.18e-03 3.37e+11  -9.0 3.83e+03    -  1.00e+00 9.84e-01f  1
  21  2.1981678e+01 2.27e-06 1.77e-02  -9.0 4.99e+01    -  1.00e+00 1.00e+00h  1
  22  2.1981678e+01 8.60e-12 4.40e-08  -9.0 1.64e-03    -  1.00e+00 1.00e+00h  1

Number of Iterations....: 22

                                   (scaled)                 (unscaled)
Objective...............:   2.1981678136563215e+01    2.1981678136563215e+01
Dual infeasibility......:   4.3992035698476116e-08    4.3992035698476116e-08
Constraint violation....:   8.6044504854498882e-12    8.6044504854498882e-12
Complementarity.........:   1.4982089515702314e-09    1.4982089515702314e-09
Overall NLP error.......:   3.5637683079121165e-10    4.3992035698476116e-08


Number of objective function evaluations             = 111
Number of objective gradient evaluations             = 23
Number of equality constraint evaluations            = 111
Number of inequality constraint evaluations          = 0
Number of equality constraint Jacobian evaluations   = 23
Number of inequality constraint Jacobian evaluations = 0
Number of Lagrangian Hessian evaluations             = 22
Total CPU secs in IPOPT (w/o function evaluations)   =      0.050
Total CPU secs in NLP function evaluations           =      0.999

EXIT: Optimal Solution Found.
